
******************************************************************************
This program contains Ipopt, a library for large-scale nonlinear optimization.
 Ipopt is released as open source code under the Eclipse Public License (EPL).
         For more information visit http://projects.coin-or.org/Ipopt
******************************************************************************

This is Ipopt version 3.12.6, running with linear solver ma57.

Number of nonzeros in equality constraint Jacobian...:   140264
Number of nonzeros in inequality constraint Jacobian.:      946
Number of nonzeros in Lagrangian Hessian.............:   199062

Total number of variables............................:     3127
                     variables with only lower bounds:        0
                variables with lower and upper bounds:     3127
                     variables with only upper bounds:        0
Total number of equality constraints.................:      922
Total number of inequality constraints...............:      317
        inequality constraints with only lower bounds:        0
   inequality constraints with lower and upper bounds:        0
        inequality constraints with only upper bounds:      317

iter    objective    inf_pr   inf_du lg(mu)  ||d||  lg(rg) alpha_du alpha_pr  ls
   0 -1.0001000e+00 5.10e-01 1.00e+00  -1.0 0.00e+00    -  0.00e+00 0.00e+00   0
   1 -9.5397427e-01 4.80e-01 1.52e+00  -1.0 6.80e-01    -  1.68e-02 5.91e-02f  1
   2 -6.3828779e-01 4.26e-01 7.24e+00  -1.0 2.41e+00    -  3.32e-01 1.18e-01f  1
   3  1.1466914e+00 3.30e-01 2.79e+01  -1.0 3.08e+00    -  1.03e-01 5.24e-01f  1
   4  1.7642744e+00 2.67e-01 2.31e+01  -1.0 3.36e+00    -  1.62e-01 1.90e-01f  1
   5  5.4346363e+00 6.31e-02 6.09e+01  -1.0 3.93e+00    -  5.21e-02 9.78e-01h  1
   6  8.2826941e+00 2.28e-02 6.54e+01  -1.0 3.58e+00    -  8.78e-01 7.90e-01f  1
   7  2.0762005e+01 1.42e-03 2.05e+01  -1.0 1.25e+01    -  6.55e-01 1.00e+00f  1
   8  2.7935245e+01 1.62e-04 4.99e+00  -1.0 7.17e+00    -  1.00e+00 1.00e+00f  1
   9  2.9817659e+01 7.69e-07 2.80e-02  -1.0 1.88e+00    -  1.00e+00 1.00e+00f  1
iter    objective    inf_pr   inf_du lg(mu)  ||d||  lg(rg) alpha_du alpha_pr  ls
  10 -4.7659766e-01 1.50e-07 7.12e+00  -2.5 3.03e+01    -  7.07e-01 1.00e+00f  1
  11 -5.0409979e-01 5.93e-07 1.42e-03  -2.5 2.75e-02    -  1.00e+00 1.00e+00h  1
  12 -9.6425958e-01 5.75e-05 2.73e-01  -3.8 8.09e-01    -  9.64e-01 5.69e-01f  1
  13 -9.5979793e-01 1.46e-05 2.12e-02  -3.8 8.97e-03    -  9.76e-01 1.00e+00H  1
  14 -9.6904870e-01 5.35e-04 1.74e-02  -3.8 1.34e-02    -  1.00e+00 1.00e+00h  1
  15 -9.6903542e-01 3.19e-05 1.33e-03  -3.8 6.13e-03    -  1.00e+00 1.00e+00h  1
  16 -9.7331777e-01 1.65e-04 6.47e-03  -5.7 1.49e-02    -  8.40e-01 8.97e-01h  1
  17 -9.7426034e-01 7.32e-06 2.03e-03  -5.7 2.02e-03   0.0 1.00e+00 1.00e+00h  1
  18 -9.7708450e-01 8.41e-05 2.30e-03  -5.7 6.90e-03  -0.5 1.00e+00 1.00e+00h  1
  19 -9.8282085e-01 5.92e-04 2.98e-03  -5.7 3.24e-02  -1.0 1.00e+00 5.41e-01h  1
iter    objective    inf_pr   inf_du lg(mu)  ||d||  lg(rg) alpha_du alpha_pr  ls
  20 -9.8633535e-01 2.55e-04 3.09e-03  -5.7 1.05e-02  -0.5 1.00e+00 7.86e-01f  1
  21 -9.9024188e-01 4.15e-04 3.20e-03  -5.7 4.41e-02  -1.0 1.00e+00 3.16e-01f  1
  22 -9.9316488e-01 2.15e-04 3.05e-03  -5.7 1.13e-02  -0.6 1.00e+00 6.93e-01f  1
  23 -9.9654267e-01 3.75e-04 3.25e-03  -5.7 5.39e-02  -1.1 1.00e+00 2.59e-01f  1
  24 -1.0001631e+00 2.65e-04 2.99e-03  -5.7 1.28e-02  -0.6 1.00e+00 8.15e-01f  1
  25 -1.0035558e+00 5.02e-04 2.75e-03  -5.7 5.42e-02  -1.1 8.72e-01 2.57e-01f  1
  26 -1.0070385e+00 3.72e-04 2.31e-03  -5.7 1.10e-02  -0.7 1.00e+00 8.39e-01f  1
  27 -1.0091166e+00 4.90e-04 2.99e-03  -5.7 1.10e-01  -1.2 5.38e-01 1.55e-01f  1
  28 -1.0126793e+00 4.29e-04 3.36e-03  -5.7 1.85e-02  -0.7 1.00e+00 8.57e-01f  1
  29 -1.0152660e+00 6.36e-04 3.14e-03  -5.7 5.18e-02  -1.2 1.00e+00 2.54e-01f  1
iter    objective    inf_pr   inf_du lg(mu)  ||d||  lg(rg) alpha_du alpha_pr  ls
  30 -1.0188687e+00 5.02e-04 2.55e-03  -5.7 1.55e-02  -0.8 1.00e+00 1.00e+00f  1
  31 -1.0215146e+00 7.51e-04 2.68e-03  -5.7 5.76e-02  -1.3 7.71e-01 2.73e-01h  1
  32 -1.0227349e+00 4.50e-04 2.36e-03  -5.7 1.37e-02  -0.8 1.00e+00 4.53e-01f  1
  33 -1.0266049e+00 1.64e-03 1.82e-03  -5.7 3.80e-02  -1.3 1.00e+00 6.29e-01f  1
  34 -1.0270575e+00 1.18e-03 3.05e-03  -5.7 1.35e-02  -0.9 1.00e+00 2.81e-01f  1
  35 -1.0293041e+00 1.31e-03 1.25e-03  -5.7 3.72e-02  -1.4 1.00e+00 6.35e-01f  1
  36 -1.0300423e+00 5.60e-04 1.24e-03  -5.7 9.65e-03  -0.9 1.00e+00 6.48e-01f  1
  37 -1.0318951e+00 1.28e-03 8.37e-04  -5.7 2.15e-02  -1.4 1.00e+00 9.50e-01f  1
  38 -1.0326939e+00 2.18e-04 6.90e-04  -5.7 6.47e-03  -1.0 1.00e+00 1.00e+00f  1
  39 -1.0334456e+00 4.66e-04 6.50e-04  -5.7 2.00e-02  -1.5 1.00e+00 3.80e-01h  1
iter    objective    inf_pr   inf_du lg(mu)  ||d||  lg(rg) alpha_du alpha_pr  ls
  40 -1.0340346e+00 1.71e-04 5.79e-04  -5.7 6.34e-03  -1.0 1.00e+00 1.00e+00f  1
  41 -1.0351779e+00 1.08e-03 1.88e-03  -5.7 2.30e-02  -1.5 1.00e+00 5.86e-01h  1
  42 -1.0354765e+00 4.77e-04 1.02e-03  -5.7 9.01e-03  -1.1 1.00e+00 5.89e-01f  1
  43 -1.0362723e+00 6.49e-04 7.80e-04  -5.7 2.03e-02  -1.6 1.00e+00 6.42e-01f  1
  44 -1.0366099e+00 5.17e-05 4.58e-04  -5.7 6.34e-03  -1.1 1.00e+00 1.00e+00f  1
  45 -1.0373125e+00 2.66e-04 3.46e-04  -5.7 1.00e-02  -1.6 1.00e+00 1.00e+00h  1
  46 -1.0374696e+00 9.64e-06 1.46e-04  -5.7 2.28e-03  -1.2 1.00e+00 1.00e+00h  1
  47 -1.0376913e+00 1.08e-04 2.90e-04  -5.7 1.10e-02  -1.7 1.00e+00 1.00e+00h  1
  48 -1.0377813e+00 1.54e-05 2.75e-04  -5.7 4.83e-03  -1.2 1.00e+00 1.00e+00h  1
  49 -1.0378619e+00 5.49e-05 3.05e-03  -5.7 4.39e-02  -1.7 5.60e-01 1.72e-01h  2
iter    objective    inf_pr   inf_du lg(mu)  ||d||  lg(rg) alpha_du alpha_pr  ls
  50 -1.0379721e+00 4.14e-05 3.22e-04  -5.7 6.44e-03  -1.3 1.00e+00 1.00e+00h  1
  51 -1.0382015e+00 2.64e-04 3.27e-04  -5.7 1.65e-02  -1.8 1.00e+00 1.00e+00h  1
  52 -1.0383386e+00 3.82e-04 1.48e-02  -5.7 6.13e-01  -2.2 9.33e-02 2.13e-02h  2
  53 -1.0385143e+00 2.92e-04 4.06e-03  -5.7 2.21e-02  -1.8 1.00e+00 5.91e-01h  1
  54 -1.0388413e+00 1.74e-04 1.93e-03  -5.7 3.31e-02  -2.3 6.40e-01 7.93e-01F  1
  55 -1.0389079e+00 3.08e-04 3.51e-03  -5.7 1.65e-02  -1.9 3.00e-01 1.00e+00f  1
  56 -1.0390558e+00 6.52e-05 2.43e-04  -5.7 6.92e-03  -1.4 1.00e+00 1.00e+00h  1
  57 -1.0391125e+00 6.74e-05 9.23e-04  -5.7 1.27e-02  -1.9 1.00e+00 2.13e-01h  2
  58 -1.0392945e+00 1.68e-04 6.47e-05  -5.7 1.03e-02  -2.4 1.00e+00 1.00e+00h  1
  59 -1.0392475e+00 1.76e-05 6.31e-06  -5.7 3.26e-03  -2.9 1.00e+00 1.00e+00h  1
iter    objective    inf_pr   inf_du lg(mu)  ||d||  lg(rg) alpha_du alpha_pr  ls
  60 -1.0423605e+00 3.93e-04 9.85e-05  -8.6 1.05e-02  -3.4 8.72e-01 9.33e-01h  1
  61 -1.0426559e+00 5.62e-06 2.78e-06  -8.6 2.38e-03  -2.9 9.93e-01 1.00e+00h  1
  62 -1.0426569e+00 6.48e-10 5.73e-08  -8.6 1.83e-05  -2.5 1.00e+00 1.00e+00h  1
  63 -1.0426569e+00 9.28e-14 2.88e-10  -8.6 2.76e-07  -3.0 1.00e+00 1.00e+00h  1

Number of Iterations....: 63

                                   (scaled)                 (unscaled)
Objective...............:  -1.0426569440728868e+00   -1.0426569440728868e+00
Dual infeasibility......:   2.8751849955401212e-10    2.8751849955401212e-10
Constraint violation....:   9.2778172202289468e-14    9.2778172202289468e-14
Complementarity.........:   2.5060229396238519e-09    2.5060229396238519e-09
Overall NLP error.......:   2.5060229396238519e-09    2.5060229396238519e-09


Number of objective function evaluations             = 75
Number of objective gradient evaluations             = 64
Number of equality constraint evaluations            = 75
Number of inequality constraint evaluations          = 75
Number of equality constraint Jacobian evaluations   = 64
Number of inequality constraint Jacobian evaluations = 64
Number of Lagrangian Hessian evaluations             = 63
Total CPU secs in IPOPT (w/o function evaluations)   =     86.610
Total CPU secs in NLP function evaluations           =      2.683

EXIT: Optimal Solution Found.

************************ CUTEst statistics ************************


 Package used            :  IPOPT
 Problem                 :  TWIRIBG1  
 # variables             =            3127
 # constraints           =            1239
 # objective functions   =        0.1400000E+03
 # objective gradients   =        0.6500000E+02
 # objective Hessians    =        0.6400000E+02
 # Hessian-vector prdct  =        0.0000000E+00
 # constraints functions =        0.1410000E+03
 # constraints gradients =        0.6600000E+02
 # constraints Hessians  =        0.6400000E+02
 Exit code               =               0
 Final f                 =  -0.1042657E+01
 Set up time             =            0.78 seconds
 Solve time              =          183.13 seconds


******************************************************************

System Time =      45.8689994812 s.
